100 8
212 493
878 604
531 746
551 702
649 365
543 760
863 169
793 295
623 166
245 167
480 703
516 750
529 428
906 423
464 627
156 164
833 335
812 272
935 523
679 431
572 357
448 738
424 778
528 618
530 859
716 762
502 313
427 133
537 393
885 503
729 482
490 764
514 137
199 66
736 246
750 256
593 425
898 260
621 542
565 897
267 198
554 126
67 119
682 217
890 131
526 647
855 284
742 306
619 105
710 652
143 117
685 377
262 232
504 75
914 330
344 133
737 672
677 362
670 396
98 215
63 50
149 75
638 401
447 616
113 147
657 110
43 154
122 209
136 136
435 910
545 148
273 448
506 792
627 185
661 364
414 638
276 288
573 94
816 62
486 165
513 836
261 269
562 340
602 444
432 113
483 43
410 703
308 486
641 302
489 108
666 416
769 110
862 333
416 635
403 192
419 768
591 163
396 491
773 276
747 466
